--- Job fixed_problem_hi.gms Start 07/12/22 11:09:51 32.2.0 rc62c018 WEX-WEI x86 64bit/MS Windows
--- Applying:
    C:\GAMS\32\gmsprmNT.txt
--- GAMS Parameters defined
    Input C:\Users\charl\OneDrive\Dokumente\A_Uni\HiWi\ArticleSubgradient\Code\SampleRun_Environment_Solar\100Scens\tol05\Scenario_1\fixed_problem_hi.gms
    PageSize 0
    ScrDir C:\Users\charl\OneDrive\Dokumente\A_Uni\HiWi\ArticleSubgradient\Code\SampleRun_Environment_Solar\100Scens\tol05\Scenario_1\225c\
    SysDir C:\GAMS\32\
    LogOption 3
    ErrMsg 1
    ErrorLog 99
    IDE 1
    LstTitleLeftAligned 1
GAMS 32.2.0   Copyright (C) 1987-2020 GAMS Development. All rights reserved
Licensee: Small MUD - 5 User License                     S200323/0001AN-GEN
          Friedrich-Alexander-Universitaet Erlangen-Nurnberg         DC7699
          C:\GAMS\32\gamslice.txt
--- Starting compilation
--- fixed_problem_hi.gms(15) 2 Mb
--- . input.gms(8) 3 Mb
--- .. solar_scenarios.csv(101) 3 Mb
--- . input.gms(22) 3 Mb
--- .. scenario_sorted.csv(101) 3 Mb
--- . input.gms(38) 3 Mb
--- .. battery_revenue.csv(25) 3 Mb
--- . input.gms(105) 3 Mb
--- fixed_problem_hi.gms(32) 3 Mb
--- . sampled_dynamic_hi.csv(25) 3 Mb
--- fixed_problem_hi.gms(44) 3 Mb
--- . equations_all.gms(76) 3 Mb
--- fixed_problem_hi.gms(84) 3 Mb
--- Starting execution: elapsed 0:00:00.017
--- fixed_problem_hi.gms(483) 5 Mb
--- Generating MIP model schedule
--- fixed_problem_hi.gms(428) 5 Mb
--- Starting Equ Objective: elapsed 0:00:00.029
--- fixed_problem_hi.gms(430) 5 Mb
--- Starting Equ Const1: elapsed 0:00:00.068
--- fixed_problem_hi.gms(436) 6 Mb
--- Starting Equ Const_chance_1: elapsed 0:00:00.073
--- fixed_problem_hi.gms(443) 7 Mb
--- Starting Equ Const_chance_2: elapsed 0:00:00.077
--- fixed_problem_hi.gms(486) 7 Mb
--- LOOPS iterFIX = iter1
---   4,702 rows  7,325 columns  21,325 non-zeroes
---   100 discrete-columns
--- Executing CPLEX (Solvelink=2): elapsed 0:00:00.097

IBM ILOG CPLEX   32.2.0 rc62c018 Released Aug 26, 2020 WEI x86 64bit/MS Window
--- GAMS/Cplex Link licensed for continuous and discrete problems.
Cplex 12.10.0.0

Reading data...
Starting Cplex...
Space for names approximately 0.29 Mb
Use option 'names no' to turn use of names off
Version identifier: 12.10.0.0 | 2019-11-26 | 843d4de2ae
CPXPARAM_Advance                                 0
CPXPARAM_Threads                                 8
CPXPARAM_Parallel                                1
CPXPARAM_MIP_Display                             4
CPXPARAM_TimeLimit                               1800
CPXPARAM_Tune_TimeLimit                          360
CPXPARAM_MIP_Tolerances_AbsMIPGap                0
CPXPARAM_MIP_Tolerances_MIPGap                   0
CPXPARAM_WorkDir                                 "C:\Users\charl\OneDrive\Dokumente\A_Uni\HiWi\ArticleSubgradient\Code\SampleRun_Environment_Solar\100Scens\tol05\Scenario_1\225c\"
Tried aggregator 1 time.
MIP Presolve eliminated 376 rows and 325 columns.
MIP Presolve modified 531 coefficients.
Reduced MIP has 4326 rows, 7000 columns, and 15275 nonzeros.
Reduced MIP has 100 binaries, 0 generals, 0 SOSs, and 0 indicators.
Presolve time = 0.02 sec. (6.89 ticks)
Probing time = 0.00 sec. (0.28 ticks)
Tried aggregator 1 time.
Detecting symmetries...
Reduced MIP has 4326 rows, 7000 columns, and 15275 nonzeros.
Reduced MIP has 100 binaries, 0 generals, 0 SOSs, and 0 indicators.
Presolve time = 0.01 sec. (10.08 ticks)
Probing time = 0.02 sec. (0.27 ticks)
MIP emphasis: balance optimality and feasibility.
MIP search method: dynamic search.
Parallel mode: deterministic, using up to 8 threads.
Parallel mode: deterministic, using up to 2 threads for parallel tasks at root LP.
Parallel mode: deterministic, using up to 6 threads for concurrent optimization:
 * Starting dual Simplex on 1 thread...
 * Starting Barrier on 4 threads...
 * Starting primal Simplex on 1 thread...
Initializing dual steep norms . . .

Iteration log . . .
Iteration:     1   Dual objective     =          -239.444551
Perturbation started.
Iteration:   101   Dual objective     =          -239.444551
Iteration:   394   Dual objective     =          -239.390965
Iteration:   639   Dual objective     =          -239.339213
Iteration:   815   Dual objective     =          -235.486789
Iteration:   979   Dual objective     =          -234.500817
Removing perturbation.

Dual simplex solved model.

Root relaxation solution time = 0.06 sec. (22.85 ticks)

        Nodes                                         Cuts/
   Node  Left     Objective  IInf  Best Integer    Best Bound    ItCnt     Gap

*     0+    0                         -232.7937     -239.4446             2.86%
Found incumbent of value -232.793696 after 0.16 sec. (56.19 ticks)
      0     0     -234.4459    77     -232.7937     -234.4459     1149    0.71%
      0     0     -233.4588    77     -232.7937     Cuts: 421     1705    0.29%
*     0+    0                         -232.9996     -233.4588             0.20%
Found incumbent of value -232.999644 after 0.38 sec. (131.55 ticks)
      0     0     -233.3162    77     -232.9996      Cuts: 61     1786    0.14%
Detecting symmetries...
      0     2     -233.3162     9     -232.9996     -233.2514     1786    0.11%
Elapsed time = 0.69 sec. (221.63 ticks, tree = 0.02 MB, solutions = 2)

Implied bound cuts applied:  199
Flow cuts applied:  92
Mixed integer rounding cuts applied:  59
Lift and project cuts applied:  1
Gomory fractional cuts applied:  53

Root node processing (before b&c):
  Real time             =    0.66 sec. (219.20 ticks)
Parallel b&c, 8 threads:
  Real time             =    0.28 sec. (71.03 ticks)
  Sync time (average)   =    0.09 sec.
  Wait time (average)   =    0.00 sec.
                          ------------
Total (root+branch&cut) =    0.94 sec. (290.23 ticks)
MIP status(113): aborted
Cplex Time: 0.94sec (det. 290.25 ticks)
Fixing integer variables, and solving final LP...
Version identifier: 12.10.0.0 | 2019-11-26 | 843d4de2ae
CPXPARAM_Advance                                 2
CPXPARAM_Threads                                 8
CPXPARAM_Parallel                                1
CPXPARAM_MIP_Display                             4
CPXPARAM_TimeLimit                               1800
CPXPARAM_Tune_TimeLimit                          360
CPXPARAM_MIP_Tolerances_AbsMIPGap                0
CPXPARAM_MIP_Tolerances_MIPGap                   0
CPXPARAM_WorkDir                                 "C:\Users\charl\OneDrive\Dokumente\A_Uni\HiWi\ArticleSubgradient\Code\SampleRun_Environment_Solar\100Scens\tol05\Scenario_1\225c\"
Parallel mode: deterministic, using up to 8 threads for concurrent optimization:
 * Starting dual Simplex on 1 thread...
 * Starting Barrier on 6 threads...
 * Starting primal Simplex on 1 thread...
Tried aggregator 1 time.
LP Presolve eliminated 466 rows and 470 columns.
Reduced LP has 4236 rows, 6855 columns, and 12942 nonzeros.
Presolve time = 0.02 sec. (7.37 ticks)
Initializing dual steep norms . . .

Iteration log . . .
Iteration:     1   Dual objective     =          -239.444551
Perturbation started.
Iteration:   101   Dual objective     =          -239.444551
Iteration:   420   Dual objective     =          -239.367175
Iteration:   632   Dual objective     =          -235.940844
Iteration:   921   Dual objective     =          -232.988200
Removing perturbation.

Dual simplex solved model.

Fixed MIP status(1): optimal
Cplex Time: 0.06sec (det. 24.89 ticks)

Problem aborted.

MIP Solution:         -232.999644    (2637 iterations, 87 nodes)
Final Solve:          -232.999644    (995 iterations)

Best possible:        -233.234717
Absolute gap:            0.235073
Relative gap:            0.001008

--- Reading solution for model schedule
--- Executing after solve: elapsed 0:00:01.184
--- fixed_problem_hi.gms(483) 7 Mb
--- Generating MIP model schedule
--- fixed_problem_hi.gms(428) 7 Mb
--- Starting Equ Objective: elapsed 0:00:01.184
--- fixed_problem_hi.gms(430) 7 Mb
--- Starting Equ Const1: elapsed 0:00:01.217
--- fixed_problem_hi.gms(436) 7 Mb
--- Starting Equ Const_chance_1: elapsed 0:00:01.222
--- fixed_problem_hi.gms(443) 7 Mb
--- Starting Equ Const_chance_2: elapsed 0:00:01.228
--- fixed_problem_hi.gms(486) 7 Mb
--- LOOPS iterFIX = iter2
---   4,702 rows  7,325 columns  21,325 non-zeroes
---   100 discrete-columns
*** Error at line 486: Control C Event: execution halted
--- fixed_problem_hi.gms(486) 7 Mb 1 Error
*** SOLVE aborted
--- Profile Summary (508 records processed)
     1.078   0.007GB       486 Solve Alg  schedule
     0.047   0.005GB       428 Equation   Objective (1)
     0.032   0.007GB       428 Equation   Objective (1)
     0.031   0.007GB       486 Solve Fini schedule (21325)
     0.016   0.007GB       486 Solve Fini schedule (21325)
     0.016   0.004GB       338 Assignment dummy (100)
     0.016   0.004GB       334 Loop       
     0.016   0.004GB       333 Loop       
     0.015   0.007GB       430 Equation   Const1 (2300)
--- fixed_problem_hi.gms(486) 7 Mb 1 Error
*** Status: Execution error(s)
--- Job fixed_problem_hi.gms Stop 07/12/22 11:09:52 elapsed 0:00:01.246
